50
-1, 537, -1, -1, -1, -1, -1, -1, -1, -1, -1, -1, -1, -1, -1, -1, -1, -1, -1, -1, -1, -1, -1, -1, -1, -1, -1, -1, -1, -1, -1, -1, -1, -1, -1, -1, -1, -1, -1, -1, -1, -1, -1, -1, 634, -1, -1, -1, -1, -1
537, -1, -1, -1, -1, -1, -1, -1, -1, -1, -1, -1, -1, -1, -1, -1, -1, -1, -1, -1, -1, -1, -1, 608, -1, -1, -1, -1, -1, -1, -1, -1, -1, -1, -1, -1, -1, -1, -1, -1, -1, -1, -1, -1, -1, -1, -1, -1, -1, -1
-1, -1, -1, -1, -1, 649, -1, -1, 681, -1, -1, -1, -1, -1, -1, -1, -1, -1, -1, -1, -1, -1, -1, -1, -1, -1, -1, -1, -1, -1, -1, -1, -1, -1, -1, -1, -1, -1, -1, -1, -1, -1, -1, -1, -1, -1, -1, -1, -1, -1
-1, -1, -1, -1, -1, -1, -1, -1, -1, -1, -1, -1, -1, -1, -1, -1, -1, -1, 503, -1, -1, -1, -1, -1, -1, -1, -1, -1, -1, -1, 514, -1, -1, -1, -1, -1, -1, -1, -1, -1, -1, -1, -1, -1, -1, -1, -1, -1, -1, -1
-1, -1, -1, -1, -1, -1, -1, -1, -1, -1, 613, 632, -1, -1, -1, -1, -1, -1, -1, -1, -1, -1, -1, -1, -1, -1, -1, -1, -1, -1, -1, -1, -1, -1, -1, -1, -1, -1, -1, -1, -1, -1, -1, -1, -1, -1, -1, -1, -1, -1
-1, -1, 649, -1, -1, -1, -1, -1, -1, -1, -1, -1, -1, -1, -1, 506, -1, -1, -1, -1, -1, -1, -1, -1, -1, -1, -1, -1, -1, -1, -1, -1, -1, -1, -1, -1, -1, -1, -1, -1, -1, -1, -1, -1, -1, -1, -1, -1, -1, -1
-1, -1, -1, -1, -1, -1, -1, 644, -1, -1, -1, -1, -1, -1, -1, -1, -1, -1, -1, -1, -1, 519, -1, -1, -1, -1, -1, -1, -1, -1, -1, -1, -1, -1, -1, -1, -1, -1, -1, -1, -1, -1, -1, -1, -1, -1, -1, -1, -1, -1
-1, -1, -1, -1, -1, -1, 644, -1, -1, -1, -1, -1, -1, -1, -1, -1, -1, -1, -1, -1, 653, -1, -1, -1, -1, -1, -1, -1, -1, -1, -1, -1, -1, -1, -1, -1, -1, -1, -1, -1, -1, -1, -1, -1, -1, -1, -1, -1, -1, -1
-1, -1, 681, -1, -1, -1, -1, -1, -1, -1, -1, -1, -1, -1, -1, -1, -1, -1, -1, -1, -1, -1, -1, -1, -1, -1, -1, 656, -1, -1, -1, -1, -1, -1, -1, -1, -1, -1, -1, -1, -1, -1, -1, -1, -1, -1, -1, -1, -1, -1
-1, -1, -1, -1, -1, -1, -1, -1, -1, -1, -1, -1, -1, -1, -1, -1, -1, -1, -1, -1, -1, -1, -1, -1, 536, -1, -1, -1, -1, -1, -1, -1, -1, -1, -1, -1, -1, -1, -1, -1, -1, -1, -1, 656, -1, -1, -1, -1, -1, -1
-1, -1, -1, -1, 613, -1, -1, -1, -1, -1, -1, -1, -1, -1, -1, -1, -1, -1, -1, -1, -1, -1, -1, -1, -1, -1, -1, -1, -1, -1, -1, -1, -1, -1, -1, -1, -1, -1, -1, -1, -1, -1, -1, -1, 619, -1, -1, -1, -1, -1
-1, -1, -1, -1, 632, -1, -1, -1, -1, -1, -1, -1, -1, -1, -1, -1, -1, -1, -1, -1, -1, -1, -1, -1, -1, -1, -1, -1, -1, -1, -1, -1, -1, -1, -1, -1, -1, -1, -1, -1, -1, -1, -1, -1, -1, -1, -1, -1, 653, -1
-1, -1, -1, -1, -1, -1, -1, -1, -1, -1, -1, -1, -1, -1, -1, -1, -1, -1, -1, -1, -1, -1, -1, -1, -1, -1, 533, -1, -1, -1, -1, -1, -1, -1, -1, -1, -1, -1, -1, -1, -1, -1, 648, -1, -1, -1, -1, -1, -1, -1
-1, -1, -1, -1, -1, -1, -1, -1, -1, -1, -1, -1, -1, -1, -1, 565, -1, -1, -1, -1, -1, -1, -1, -1, -1, -1, -1, -1, -1, -1, -1, -1, -1, -1, -1, -1, -1, -1, 577, -1, -1, -1, -1, -1, -1, -1, -1, -1, -1, -1
-1, -1, -1, -1, -1, -1, -1, -1, -1, -1, -1, -1, -1, -1, -1, 656, 673, -1, -1, -1, -1, -1, -1, -1, 581, -1, -1, -1, -1, -1, 685, 685, -1, 509, -1, -1, -1, 566, -1, 585, 607, 647, -1, -1, -1, -1, -1, -1, -1, -1
-1, -1, -1, -1, -1, 506, -1, -1, -1, -1, -1, -1, -1, 565, 656, -1, 606, -1, -1, -1, -1, -1, -1, -1, 534, -1, -1, -1, -1, -1, 653, 686, -1, 646, -1, -1, -1, 696, -1, 602, 541, -1, -1, -1, -1, -1, -1, -1, -1, -1
-1, -1, -1, -1, -1, -1, -1, -1, -1, -1, -1, -1, -1, -1, 673, 606, -1, -1, -1, -1, -1, -1, -1, 515, 687, -1, -1, -1, 663, -1, 649, 572, -1, 670, -1, -1, -1, 699, -1, 630, 593, -1, -1, -1, -1, -1, -1, -1, -1, -1
-1, -1, -1, -1, -1, -1, -1, -1, -1, -1, -1, -1, -1, -1, -1, -1, -1, -1, -1, -1, 505, -1, -1, -1, -1, -1, -1, -1, -1, -1, -1, -1, -1, -1, -1, -1, -1, -1, -1, -1, -1, -1, -1, -1, -1, -1, -1, 672, -1, -1
-1, -1, -1, 503, -1, -1, -1, -1, -1, -1, -1, -1, -1, -1, -1, -1, -1, -1, -1, -1, -1, -1, -1, -1, -1, 60, -1, -1, -1, -1, -1, -1, -1, -1, -1, -1, -1, -1, -1, -1, -1, -1, -1, -1, -1, -1, -1, -1, -1, -1
-1, -1, -1, -1, -1, -1, -1, -1, -1, -1, -1, -1, -1, -1, -1, -1, -1, -1, -1, -1, -1, -1, -1, -1, -1, -1, -1, -1, -1, -1, -1, -1, -1, -1, -1, -1, -1, -1, -1, -1, 585, -1, -1, -1, -1, -1, -1, -1, -1, 677
-1, -1, -1, -1, -1, -1, -1, 653, -1, -1, -1, -1, -1, -1, -1, -1, -1, 505, -1, -1, -1, -1, -1, -1, -1, -1, -1, -1, -1, -1, -1, -1, -1, -1, -1, -1, -1, -1, -1, -1, -1, -1, -1, -1, -1, -1, -1, -1, -1, -1
-1, -1, -1, -1, -1, -1, 519, -1, -1, -1, -1, -1, -1, -1, -1, -1, -1, -1, -1, -1, -1, -1, -1, -1, -1, -1, -1, -1, -1, -1, -1, -1, -1, -1, -1, 664, -1, -1, -1, -1, -1, -1, -1, -1, -1, -1, -1, -1, -1, -1
-1, -1, -1, -1, -1, -1, -1, -1, -1, -1, -1, -1, -1, -1, -1, -1, -1, -1, -1, -1, -1, -1, -1, -1, -1, -1, -1, -1, -1, -1, -1, -1, -1, -1, -1, -1, -1, -1, -1, -1, -1, -1, -1, -1, -1, 571, -1, 602, -1, -1
-1, 608, -1, -1, -1, -1, -1, -1, -1, -1, -1, -1, -1, -1, -1, -1, 515, -1, -1, -1, -1, -1, -1, -1, -1, -1, -1, -1, -1, -1, -1, -1, -1, -1, -1, -1, -1, -1, -1, -1, -1, -1, -1, -1, -1, -1, -1, -1, -1, -1
-1, -1, -1, -1, -1, -1, -1, -1, -1, 536, -1, -1, -1, -1, 581, 534, 687, -1, -1, -1, -1, -1, -1, -1, -1, -1, -1, -1, -1, -1, 668, 555, -1, 689, 591, -1, -1, 611, -1, 643, 660, -1, -1, -1, -1, -1, -1, -1, -1, -1
-1, -1, -1, -1, -1, -1, -1, -1, -1, -1, -1, -1, -1, -1, -1, -1, -1, -1, 60, -1, -1, -1, -1, -1, -1, -1, -1, -1, -1, -1, -1, -1, -1, -1, -1, -1, -1, 556, -1, -1, -1, -1, -1, -1, -1, -1, -1, -1, -1, -1
-1, -1, -1, -1, -1, -1, -1, -1, -1, -1, -1, -1, 533, -1, -1, -1, -1, -1, -1, -1, -1, -1, -1, -1, -1, -1, -1, -1, -1, -1, -1, -1, -1, -1, -1, -1, -1, -1, -1, -1, -1, 542, -1, -1, -1, -1, -1, -1, -1, -1
-1, -1, -1, -1, -1, -1, -1, -1, 656, -1, -1, -1, -1, -1, -1, -1, -1, -1, -1, -1, -1, -1, -1, -1, -1, -1, -1, -1, -1, -1, -1, -1, -1, -1, -1, -1, -1, -1, -1, -1, -1, -1, -1, -1, -1, 517, -1, -1, -1, -1
-1, -1, -1, -1, -1, -1, -1, -1, -1, -1, -1, -1, -1, -1, -1, -1, 663, -1, -1, -1, -1, -1, -1, -1, -1, -1, -1, -1, -1, -1, -1, -1, -1, -1, -1, -1, -1, -1, 660, -1, -1, -1, -1, -1, -1, -1, -1, -1, -1, -1
-1, -1, -1, -1, -1, -1, -1, -1, -1, -1, -1, -1, -1, -1, -1, -1, -1, -1, -1, -1, -1, -1, -1, -1, -1, -1, -1, -1, -1, -1, -1, 544, 665, -1, -1, -1, -1, -1, -1, -1, -1, -1, -1, -1, -1, -1, -1, -1, -1, -1
-1, -1, -1, 514, -1, -1, -1, -1, -1, -1, -1, -1, -1, -1, 685, 653, 649, -1, -1, -1, -1, -1, -1, -1, 668, -1, -1, -1, -1, -1, -1, 654, -1, 595, -1, -1, -1, 603, -1, 661, 646, -1, -1, 556, -1, -1, -1, -1, -1, -1
-1, -1, -1, -1, -1, -1, -1, -1, -1, -1, -1, -1, -1, -1, 685, 686, 572, -1, -1, -1, -1, -1, -1, -1, 555, -1, -1, -1, -1, 544, 654, -1, -1, 547, -1, -1, -1, 531, -1, 609, 626, -1, -1, -1, -1, -1, -1, -1, -1, -1
-1, -1, -1, -1, -1, -1, -1, -1, -1, -1, -1, -1, -1, -1, -1, -1, -1, -1, -1, -1, -1, -1, -1, -1, -1, -1, -1, -1, -1, 665, -1, -1, -1, -1, -1, -1, 655, -1, -1, -1, -1, -1, -1, -1, -1, -1, -1, -1, -1, -1
-1, -1, -1, -1, -1, -1, -1, -1, -1, -1, -1, -1, -1, -1, 509, 646, 670, -1, -1, -1, -1, -1, -1, -1, 689, -1, -1, -1, -1, -1, 595, 547, -1, -1, -1, 613, -1, 512, -1, 662, 558, -1, -1, -1, -1, -1, -1, -1, -1, -1
-1, -1, -1, -1, -1, -1, -1, -1, -1, -1, -1, -1, -1, -1, -1, -1, -1, -1, -1, -1, -1, -1, -1, -1, 591, -1, -1, -1, -1, -1, -1, -1, -1, -1, -1, -1, -1, -1, -1, -1, -1, -1, -1, -1, -1, -1, 561, -1, -1, -1
-1, -1, -1, -1, -1, -1, -1, -1, -1, -1, -1, -1, -1, -1, -1, -1, -1, -1, -1, -1, -1, 664, -1, -1, -1, -1, -1, -1, -1, -1, -1, -1, -1, 613, -1, -1, -1, -1, -1, -1, -1, -1, -1, -1, -1, -1, -1, -1, -1, -1
-1, -1, -1, -1, -1, -1, -1, -1, -1, -1, -1, -1, -1, -1, -1, -1, -1, -1, -1, -1, -1, -1, -1, -1, -1, -1, -1, -1, -1, -1, -1, -1, 655, -1, -1, -1, -1, -1, -1, -1, -1, -1, -1, -1, -1, -1, -1, -1, -1, 505
-1, -1, -1, -1, -1, -1, -1, -1, -1, -1, -1, -1, -1, -1, 566, 696, 699, -1, -1, -1, -1, -1, -1, -1, 611, 556, -1, -1, -1, -1, 603, 531, -1, 512, -1, -1, -1, -1, -1, 550, 638, -1, -1, -1, -1, -1, -1, -1, -1, -1
-1, -1, -1, -1, -1, -1, -1, -1, -1, -1, -1, -1, -1, 577, -1, -1, -1, -1, -1, -1, -1, -1, -1, -1, -1, -1, -1, -1, 660, -1, -1, -1, -1, -1, -1, -1, -1, -1, -1, -1, -1, -1, -1, -1, -1, -1, -1, -1, -1, -1
-1, -1, -1, -1, -1, -1, -1, -1, -1, -1, -1, -1, -1, -1, 585, 602, 630, -1, -1, -1, -1, -1, -1, -1, 643, -1, -1, -1, -1, -1, 661, 609, -1, 662, -1, -1, -1, 550, -1, -1, 680, -1, -1, -1, -1, -1, 592, -1, -1, -1
-1, -1, -1, -1, -1, -1, -1, -1, -1, -1, -1, -1, -1, -1, 607, 541, 593, -1, -1, 585, -1, -1, -1, -1, 660, -1, -1, -1, -1, -1, 646, 626, -1, 558, -1, -1, -1, 638, -1, 680, -1, -1, -1, -1, -1, -1, -1, -1, -1, -1
-1, -1, -1, -1, -1, -1, -1, -1, -1, -1, -1, -1, -1, -1, 647, -1, -1, -1, -1, -1, -1, -1, -1, -1, -1, -1, 542, -1, -1, -1, -1, -1, -1, -1, -1, -1, -1, -1, -1, -1, -1, -1, -1, -1, -1, -1, -1, -1, -1, -1
-1, -1, -1, -1, -1, -1, -1, -1, -1, -1, -1, -1, 648, -1, -1, -1, -1, -1, -1, -1, -1, -1, -1, -1, -1, -1, -1, -1, -1, -1, -1, -1, -1, -1, -1, -1, -1, -1, -1, -1, -1, -1, -1, -1, -1, -1, -1, -1, 653, -1
-1, -1, -1, -1, -1, -1, -1, -1, -1, 656, -1, -1, -1, -1, -1, -1, -1, -1, -1, -1, -1, -1, -1, -1, -1, -1, -1, -1, -1, -1, 556, -1, -1, -1, -1, -1, -1, -1, -1, -1, -1, -1, -1, -1, -1, -1, -1, -1, -1, -1
634, -1, -1, -1, -1, -1, -1, -1, -1, -1, 619, -1, -1, -1, -1, -1, -1, -1, -1, -1, -1, -1, -1, -1, -1, -1, -1, -1, -1, -1, -1, -1, -1, -1, -1, -1, -1, -1, -1, -1, -1, -1, -1, -1, -1, -1, -1, -1, -1, -1
-1, -1, -1, -1, -1, -1, -1, -1, -1, -1, -1, -1, -1, -1, -1, -1, -1, -1, -1, -1, -1, -1, 571, -1, -1, -1, -1, 517, -1, -1, -1, -1, -1, -1, -1, -1, -1, -1, -1, -1, -1, -1, -1, -1, -1, -1, -1, -1, -1, -1
-1, -1, -1, -1, -1, -1, -1, -1, -1, -1, -1, -1, -1, -1, -1, -1, -1, -1, -1, -1, -1, -1, -1, -1, -1, -1, -1, -1, -1, -1, -1, -1, -1, -1, 561, -1, -1, -1, -1, 592, -1, -1, -1, -1, -1, -1, -1, -1, -1, -1
-1, -1, -1, -1, -1, -1, -1, -1, -1, -1, -1, -1, -1, -1, -1, -1, -1, 672, -1, -1, -1, -1, 602, -1, -1, -1, -1, -1, -1, -1, -1, -1, -1, -1, -1, -1, -1, -1, -1, -1, -1, -1, -1, -1, -1, -1, -1, -1, -1, -1
-1, -1, -1, -1, -1, -1, -1, -1, -1, -1, -1, 653, -1, -1, -1, -1, -1, -1, -1, -1, -1, -1, -1, -1, -1, -1, -1, -1, -1, -1, -1, -1, -1, -1, -1, -1, -1, -1, -1, -1, -1, -1, 653, -1, -1, -1, -1, -1, -1, -1
-1, -1, -1, -1, -1, -1, -1, -1, -1, -1, -1, -1, -1, -1, -1, -1, -1, -1, -1, 677, -1, -1, -1, -1, -1, -1, -1, -1, -1, -1, -1, -1, -1, -1, -1, -1, 505, -1, -1, -1, -1, -1, -1, -1, -1, -1, -1, -1, -1, -1